(set-info :smt-lib-version 2.6)
(set-logic QF_S)
(set-info :source |
Generated by: Hung-En Wang, Tzung-Lin Tsai, Chun-Han Lin, Fang Yu, and Jie-Hong R. Jiang
Generated on: 2019-02-28
Generator: Stranger
Application: Security analysis of string manipulating web applications
Target solver: CVC4, Norn, Z3-str2
Publication:
Hung-En Wang, Tzung-Lin Tsai, Chun-Han Lin, Fang Yu, Jie-Hong R. Jiang:
String Analysis via Automata Manipulation with Logic Circuit Representation. CAV (1) 2016: 241-260.
|)
(set-info :license "https://creativecommons.org/licenses/by/4.0/")
(set-info :category "industrial")
(set-info :status unknown)

(declare-fun sigmaStar_0 () String)
(declare-fun sigmaStar_1 () String)
(declare-fun sigmaStar_2 () String)
(declare-fun sigmaStar_3 () String)
(declare-fun sigmaStar_4 () String)
(declare-fun sigmaStar_5 () String)
(declare-fun sigmaStar_6 () String)
(declare-fun literal_7 () String)
(declare-fun x_8 () String)
(declare-fun literal_10 () String)
(declare-fun x_13 () String)
(declare-fun literal_12 () String)
(declare-fun x_11 () String)
(declare-fun epsilon () String)
(declare-fun literal_9 () String)
(declare-fun x_15 () String)
(declare-fun x_18 () String)
(declare-fun sigmaStar_19 () String)
(declare-fun literal_17 () String)
(declare-fun x_20 () String)
(declare-fun literal_21 () String)
(declare-fun x_23 () String)
(declare-fun x_26 () String)
(declare-fun x_27 () String)
(declare-fun literal_25 () String)
(declare-fun x_30 () String)
(declare-fun literal_31 () String)
(declare-fun x_34 () String)
(declare-fun x_33 () String)
(declare-fun literal_28 () String)
(declare-fun literal_29 () String)
(declare-fun x_36 () String)
(declare-fun x_38 () String)
(declare-fun sigmaStar_39 () String)
(declare-fun literal_35 () String)
(declare-fun x_40 () String)
(declare-fun literal_41 () String)
(declare-fun x_42 () String)
(declare-fun x_43 () String)
(declare-fun x_45 () String)
(declare-fun literal_44 () String)
(declare-fun x_47 () String)
(declare-fun literal_48 () String)
(declare-fun x_50 () String)
(declare-fun x_49 () String)
(declare-fun literal_46 () String)
(declare-fun x_51 () String)
(declare-fun x_52 () String)
(assert (= literal_7 "\u{20}\u{2f}\u{3e}\u{0d}\u{0a}\u{20}\u{20}\u{3c}\u{69}\u{6e}\u{70}\u{75}\u{74}\u{20}\u{74}\u{79}\u{70}\u{65}\u{3d}\u{68}\u{69}\u{64}\u{64}\u{65}\u{6e}\u{27}\u{20}\u{6e}\u{61}\u{6d}\u{65}\u{3d}\u{27}\u{73}\u{74}\u{75}\u{64}\u{65}\u{6e}\u{74}\u{27}\u{20}\u{76}\u{61}\u{6c}\u{75}\u{65}\u{3d}\u{27}"))
(assert (= x_8 (str.++ literal_7 sigmaStar_2)))
(assert (= literal_10 "\u{20}\u{2f}\u{3e}\u{0d}\u{0a}\u{20}\u{20}\u{3c}\u{69}\u{6e}\u{70}\u{75}\u{74}\u{20}\u{74}\u{79}\u{70}\u{65}\u{3d}\u{68}\u{69}\u{64}\u{64}\u{65}\u{6e}\u{27}\u{20}\u{6e}\u{61}\u{6d}\u{65}\u{3d}\u{27}\u{61}\u{73}\u{73}\u{69}\u{67}\u{6e}\u{6d}\u{65}\u{6e}\u{74}\u{27}\u{20}\u{76}\u{61}\u{6c}\u{75}\u{65}\u{3d}\u{27}"))
(assert (= x_13 (str.++ x_8 literal_10)))
(assert (= literal_12 "\u{09}\u{3c}\u{2f}\u{74}\u{64}\u{3e}\u{0d}\u{0a}\u{09}\u{3c}\u{74}\u{64}\u{3e}\u{3c}\u{69}\u{6e}\u{70}\u{75}\u{74}\u{20}\u{74}\u{79}\u{70}\u{65}\u{3d}\u{27}\u{74}\u{65}\u{78}\u{74}\u{27}\u{20}\u{6e}\u{61}\u{6d}\u{65}\u{3d}\u{27}\u{67}\u{72}\u{61}\u{64}\u{65}\u{64}\u{61}\u{74}\u{65}\u{27}\u{20}\u{6d}\u{61}\u{78}\u{6c}\u{65}\u{6e}\u{67}\u{74}\u{68}\u{3d}\u{27}\u{31}\u{30}\u{27}\u{20}\u{73}\u{69}\u{7a}\u{65}\u{3d}\u{27}\u{31}\u{30}\u{27}\u{20}\u{76}\u{61}\u{6c}\u{75}\u{65}\u{3d}\u{27}"))
(assert (= epsilon ""))
(assert (= literal_9 ""))
(assert (or (= x_11 epsilon) (= x_11 literal_9)))
(assert (= x_15 (str.++ literal_12 x_11)))
(assert (= x_18 (str.++ x_13 sigmaStar_3)))
(assert (= literal_17 "\u{27}\u{20}\u{2f}\u{3e}\u{3c}\u{2f}\u{74}\u{64}\u{3e}\u{0d}\u{0a}\u{09}\u{3c}\u{74}\u{64}\u{3e}\u{3c}\u{69}\u{6e}\u{70}\u{75}\u{74}\u{20}\u{74}\u{79}\u{70}\u{65}\u{3d}\u{27}\u{74}\u{65}\u{78}\u{74}\u{27}\u{20}\u{6e}\u{61}\u{6d}\u{65}\u{3d}\u{27}\u{70}\u{6f}\u{69}\u{6e}\u{74}\u{73}\u{27}\u{20}\u{6d}\u{61}\u{78}\u{6c}\u{65}\u{6e}\u{67}\u{74}\u{68}\u{3d}\u{27}\u{35}\u{27}\u{20}\u{73}\u{69}\u{7a}\u{65}\u{3d}\u{27}\u{35}\u{27}\u{20}\u{76}\u{61}\u{6c}\u{75}\u{65}\u{3d}\u{27}"))
(assert (= x_20 (str.++ x_15 literal_17)))
(assert (= literal_21 "\u{20}\u{2f}\u{3e}\u{0d}\u{0a}\u{20}\u{20}\u{3c}\u{69}\u{6e}\u{70}\u{75}\u{74}\u{20}\u{74}\u{79}\u{70}\u{65}\u{3d}\u{68}\u{69}\u{64}\u{64}\u{65}\u{6e}\u{27}\u{20}\u{6e}\u{61}\u{6d}\u{65}\u{3d}\u{27}\u{73}\u{65}\u{6c}\u{65}\u{63}\u{74}\u{63}\u{6c}\u{61}\u{73}\u{73}\u{27}\u{20}\u{76}\u{61}\u{6c}\u{75}\u{65}\u{3d}\u{27}"))
(assert (= x_23 (str.++ x_18 literal_21)))
(assert (= x_26 (str.++ x_20 sigmaStar_19)))
(assert (= x_27 (str.++ x_23 sigmaStar_1)))
(assert (= literal_25 "\u{20}\u{2f}\u{3e}\u{3c}\u{2f}\u{74}\u{64}\u{3e}\u{0d}\u{0a}\u{09}\u{3c}\u{74}\u{64}\u{3e}\u{3c}\u{74}\u{65}\u{78}\u{74}\u{61}\u{72}\u{65}\u{61}\u{20}\u{63}\u{6f}\u{6c}\u{73}\u{3d}\u{32}\u{30}\u{27}\u{20}\u{72}\u{6f}\u{77}\u{73}\u{3d}\u{27}\u{33}\u{27}\u{20}\u{6e}\u{61}\u{6d}\u{65}\u{3d}\u{27}\u{63}\u{6f}\u{6d}\u{6d}\u{65}\u{6e}\u{74}\u{27}\u{3e}\u{3c}\u{2f}\u{74}\u{65}\u{78}\u{74}\u{61}\u{72}\u{65}\u{61}\u{3e}\u{3c}\u{2f}\u{74}\u{64}\u{3e}\u{0d}\u{0a}\u{09}\u{3c}\u{74}\u{64}\u{3e}\u{3c}\u{69}\u{6e}\u{70}\u{75}\u{74}\u{20}\u{74}\u{79}\u{70}\u{65}\u{3d}\u{27}\u{63}\u{68}\u{65}\u{63}\u{6b}\u{62}\u{6f}\u{78}\u{27}\u{20}\u{6e}\u{61}\u{6d}\u{65}\u{3d}\u{27}\u{6c}\u{61}\u{74}\u{65}\u{27}\u{20}\u{76}\u{61}\u{6c}\u{75}\u{65}\u{3d}\u{27}\u{31}\u{27}"))
(assert (= x_30 (str.++ x_26 literal_25)))
(assert (= literal_31 "\u{20}\u{2f}\u{3e}\u{0d}\u{0a}\u{20}\u{20}\u{3c}\u{69}\u{6e}\u{70}\u{75}\u{74}\u{20}\u{74}\u{79}\u{70}\u{65}\u{3d}\u{68}\u{69}\u{64}\u{64}\u{65}\u{6e}\u{27}\u{20}\u{6e}\u{61}\u{6d}\u{65}\u{3d}\u{27}\u{70}\u{61}\u{67}\u{65}\u{32}\u{27}\u{20}\u{76}\u{61}\u{6c}\u{75}\u{65}\u{3d}\u{27}"))
(assert (= x_34 (str.++ x_27 literal_31)))
(assert (= literal_28 ""))
(assert (= literal_29 "\u{43}\u{48}\u{45}\u{43}\u{4b}\u{45}\u{44}"))
(assert (or (= x_33 literal_28) (= x_33 literal_29)))
(assert (= x_36 (str.++ x_30 x_33)))
(assert (= x_38 (str.++ x_34 sigmaStar_4)))
(assert (= literal_35 "\u{20}\u{2f}\u{3e}\u{3c}\u{2f}\u{74}\u{64}\u{3e}\u{0d}\u{0a}\u{20}\u{20}\u{20}\u{3c}\u{2f}\u{74}\u{72}\u{3e}\u{0d}\u{0a}\u{20}\u{20}\u{20}\u{3c}\u{2f}\u{74}\u{61}\u{62}\u{6c}\u{65}\u{3e}\u{0d}\u{0a}\u{0d}\u{0a}\u{20}\u{20}\u{20}\u{3c}\u{62}\u{72}\u{3e}\u{0d}\u{0a}\u{0d}\u{0a}\u{20}\u{20}\u{20}\u{3c}\u{74}\u{61}\u{62}\u{6c}\u{65}\u{20}\u{63}\u{65}\u{6c}\u{6c}\u{70}\u{61}\u{64}\u{64}\u{69}\u{6e}\u{67}\u{3d}\u{27}\u{30}\u{27}\u{20}\u{62}\u{6f}\u{72}\u{64}\u{65}\u{72}\u{3d}\u{27}\u{30}\u{27}\u{20}\u{61}\u{6c}\u{69}\u{67}\u{6e}\u{3d}\u{27}\u{63}\u{65}\u{6e}\u{74}\u{65}\u{72}\u{27}\u{20}\u{77}\u{69}\u{64}\u{74}\u{68}\u{3d}\u{27}\u{35}\u{30}\u{30}\u{27}\u{3e}\u{0d}\u{0a}\u{20}\u{20}\u{20}\u{3c}\u{74}\u{72}\u{3e}\u{0d}\u{0a}\u{20}\u{20}\u{20}\u{3c}\u{74}\u{64}\u{3e}\u{3c}\u{69}\u{6e}\u{70}\u{75}\u{74}\u{20}\u{74}\u{79}\u{70}\u{65}\u{3d}\u{27}\u{62}\u{75}\u{74}\u{74}\u{6f}\u{6e}\u{27}\u{20}\u{76}\u{61}\u{6c}\u{75}\u{65}\u{3d}\u{27}\u{45}\u{64}\u{69}\u{74}\u{20}\u{47}\u{72}\u{61}\u{64}\u{65}\u{27}\u{20}\u{6f}\u{6e}\u{43}\u{6c}\u{69}\u{63}\u{6b}\u{3d}\u{27}\u{64}\u{6f}\u{63}\u{75}\u{6d}\u{65}\u{6e}\u{74}\u{2e}\u{65}\u{64}\u{69}\u{74}\u{67}\u{72}\u{61}\u{64}\u{65}\u{2e}\u{65}\u{64}\u{69}\u{74}\u{67}\u{72}\u{61}\u{64}\u{65}\u{2e}\u{76}\u{61}\u{6c}\u{75}\u{65}\u{3d}\u{31}\u{3b}\u{64}\u{6f}\u{63}\u{75}\u{6d}\u{65}\u{6e}\u{74}\u{2e}\u{65}\u{64}\u{69}\u{74}\u{67}\u{72}\u{61}\u{64}\u{65}\u{2e}\u{70}\u{61}\u{67}\u{65}\u{32}\u{2e}\u{76}\u{61}\u{6c}\u{75}\u{65}\u{3d}\u{33}\u{3b}\u{64}\u{6f}\u{63}\u{75}\u{6d}\u{65}\u{6e}\u{74}\u{2e}\u{65}\u{64}\u{69}\u{74}\u{67}\u{72}\u{61}\u{64}\u{65}\u{2e}\u{73}\u{75}\u{62}\u{6d}\u{69}\u{74}\u{28}\u{29}\u{3b}\u{27}\u{3e}\u{20}\u{3c}\u{69}\u{6e}\u{70}\u{75}\u{74}\u{20}\u{74}\u{79}\u{70}\u{65}\u{3d}\u{27}\u{62}\u{75}\u{74}\u{74}\u{6f}\u{6e}\u{27}\u{20}\u{76}\u{61}\u{6c}\u{75}\u{65}\u{3d}\u{27}\u{43}\u{61}\u{6e}\u{63}\u{65}\u{6c}\u{27}\u{20}\u{6f}\u{6e}\u{43}\u{6c}\u{69}\u{63}\u{6b}\u{3d}\u{27}\u{64}\u{6f}\u{63}\u{75}\u{6d}\u{65}\u{6e}\u{74}\u{2e}\u{65}\u{64}\u{69}\u{74}\u{67}\u{72}\u{61}\u{64}\u{65}\u{2e}\u{70}\u{61}\u{67}\u{65}\u{32}\u{2e}\u{76}\u{61}\u{6c}\u{75}\u{65}\u{3d}\u{33}\u{3b}\u{64}\u{6f}\u{63}\u{75}\u{6d}\u{65}\u{6e}\u{74}\u{2e}\u{65}\u{64}\u{69}\u{74}\u{67}\u{72}\u{61}\u{64}\u{65}\u{2e}\u{73}\u{75}\u{62}\u{6d}\u{69}\u{74}\u{28}\u{29}\u{3b}\u{27}\u{3e}\u{3c}\u{2f}\u{74}\u{64}\u{3e}\u{0d}\u{0a}\u{20}\u{20}\u{20}\u{3c}\u{2f}\u{74}\u{72}\u{3e}\u{0d}\u{0a}\u{20}\u{20}\u{20}\u{3c}\u{2f}\u{74}\u{61}\u{62}\u{6c}\u{65}\u{3e}\u{0d}\u{0a}\u{0d}\u{0a}\u{20}\u{20}\u{3c}\u{69}\u{6e}\u{70}\u{75}\u{74}\u{20}\u{74}\u{79}\u{70}\u{65}\u{3d}\u{27}\u{68}\u{69}\u{64}\u{64}\u{65}\u{6e}\u{27}\u{20}\u{6e}\u{61}\u{6d}\u{65}\u{3d}\u{27}\u{65}\u{64}\u{69}\u{74}\u{67}\u{72}\u{61}\u{64}\u{65}\u{27}\u{20}\u{76}\u{61}\u{6c}\u{75}\u{65}\u{3d}\u{27}\u{27}\u{3e}\u{0d}\u{0a}\u{20}\u{20}\u{3c}\u{69}\u{6e}\u{70}\u{75}\u{74}\u{20}\u{74}\u{79}\u{70}\u{65}\u{3d}\u{27}\u{68}\u{69}\u{64}\u{64}\u{65}\u{6e}\u{27}\u{20}\u{6e}\u{61}\u{6d}\u{65}\u{3d}\u{27}\u{67}\u{72}\u{61}\u{64}\u{65}\u{69}\u{64}\u{27}\u{20}\u{76}\u{61}\u{6c}\u{75}\u{65}\u{3d}\u{27}\u{20}\u{2f}\u{3e}\u{0d}\u{0a}\u{20}\u{20}\u{3c}\u{69}\u{6e}\u{70}\u{75}\u{74}\u{20}\u{74}\u{79}\u{70}\u{65}\u{3d}\u{68}\u{69}\u{64}\u{64}\u{65}\u{6e}\u{27}\u{20}\u{6e}\u{61}\u{6d}\u{65}\u{3d}\u{27}\u{77}\u{61}\u{73}\u{67}\u{72}\u{61}\u{64}\u{65}\u{27}\u{20}\u{76}\u{61}\u{6c}\u{75}\u{65}\u{3d}\u{27}"))
(assert (= x_40 (str.++ x_36 literal_35)))
(assert (= literal_41 "\u{3e}\u{0d}\u{0a}\u{20}\u{20}\u{3c}\u{69}\u{6e}\u{70}\u{75}\u{74}\u{20}\u{74}\u{79}\u{70}\u{65}\u{3d}\u{68}\u{69}\u{64}\u{64}\u{65}\u{6e}\u{27}\u{20}\u{6e}\u{61}\u{6d}\u{65}\u{3d}\u{27}\u{64}\u{61}\u{74}\u{65}\u{27}\u{3e}\u{0d}\u{0a}\u{20}\u{20}\u{3c}\u{69}\u{6e}\u{70}\u{75}\u{74}\u{20}\u{74}\u{79}\u{70}\u{65}\u{3d}\u{27}\u{68}\u{69}\u{64}\u{64}\u{65}\u{6e}\u{27}\u{20}\u{6e}\u{61}\u{6d}\u{65}\u{3d}\u{27}\u{6c}\u{6f}\u{67}\u{6f}\u{75}\u{74}\u{27}\u{3e}\u{0d}\u{0a}\u{20}\u{20}\u{3c}\u{69}\u{6e}\u{70}\u{75}\u{74}\u{20}\u{74}\u{79}\u{70}\u{65}\u{3d}\u{27}\u{68}\u{69}\u{64}\u{64}\u{65}\u{6e}\u{27}\u{20}\u{6e}\u{61}\u{6d}\u{65}\u{3d}\u{27}\u{70}\u{61}\u{67}\u{65}\u{27}\u{20}\u{76}\u{61}\u{6c}\u{75}\u{65}\u{3d}\u{27}"))
(assert (= x_42 (str.++ x_38 literal_41)))
(assert (= x_43 (str.++ x_40 sigmaStar_39)))
(assert (= x_45 (str.++ x_42 sigmaStar_5)))
(assert (= literal_44 "\u{27}\u{20}\u{2f}\u{3e}\u{0d}\u{0a}\u{20}\u{20}\u{3c}\u{69}\u{6e}\u{70}\u{75}\u{74}\u{20}\u{74}\u{79}\u{70}\u{65}\u{3d}\u{27}\u{68}\u{69}\u{64}\u{64}\u{65}\u{6e}\u{27}\u{20}\u{6e}\u{61}\u{6d}\u{65}\u{3d}\u{27}\u{77}\u{61}\u{73}\u{64}\u{61}\u{74}\u{65}\u{27}\u{20}\u{76}\u{61}\u{6c}\u{75}\u{65}\u{3d}\u{27}"))
(assert (= x_47 (str.++ x_43 literal_44)))
(assert (= literal_48 "\u{3e}\u{0d}\u{0a}\u{0d}\u{0a}\u{20}\u{3c}\u{2f}\u{66}\u{6f}\u{72}\u{6d}\u{3e}\u{0d}\u{0a}\u{0d}\u{0a}\u{20}\u{3c}\u{74}\u{61}\u{62}\u{6c}\u{65}\u{20}\u{77}\u{69}\u{64}\u{74}\u{68}\u{3d}\u{35}\u{32}\u{30}\u{27}\u{20}\u{62}\u{6f}\u{72}\u{64}\u{65}\u{72}\u{3d}\u{30}\u{20}\u{63}\u{65}\u{6c}\u{6c}\u{73}\u{70}\u{61}\u{63}\u{69}\u{6e}\u{67}\u{3d}\u{30}\u{20}\u{63}\u{65}\u{6c}\u{6c}\u{70}\u{61}\u{64}\u{64}\u{69}\u{6e}\u{67}\u{3d}\u{30}\u{20}\u{68}\u{65}\u{69}\u{67}\u{68}\u{74}\u{3d}\u{31}\u{3e}\u{0d}\u{0a}\u{20}\u{20}\u{3c}\u{74}\u{72}\u{3e}\u{0d}\u{0a}\u{20}\u{20}\u{20}\u{3c}\u{74}\u{64}\u{20}\u{76}\u{61}\u{6c}\u{69}\u{67}\u{6e}\u{3d}\u{27}\u{74}\u{6f}\u{70}\u{27}\u{3e}\u{0d}\u{0a}\u{09}\u{26}\u{6e}\u{62}\u{73}\u{70}\u{3b}\u{0d}\u{0a}\u{20}\u{20}\u{20}\u{3c}\u{2f}\u{74}\u{64}\u{3e}\u{0d}\u{0a}\u{20}\u{20}\u{3c}\u{2f}\u{74}\u{72}\u{3e}\u{0d}\u{0a}\u{20}\u{3c}\u{2f}\u{74}\u{61}\u{62}\u{6c}\u{65}\u{3e}\u{0d}\u{0a}\u{20}"))
(assert (= x_50 (str.++ x_45 literal_48)))
(assert (= literal_46 ""))
(assert (or (= x_49 epsilon) (= x_49 literal_46)))
(assert (= x_51 (str.++ x_47 x_49)))
(assert (= x_52 (str.++ x_51 x_50)))
(assert (str.in_re x_52 (re.++ (re.* re.allchar) (re.++ (str.to_re "\u{5c}\u{3c}\u{53}\u{43}\u{52}\u{49}\u{50}\u{54}") (re.* re.allchar)))))
(check-sat)
(exit)
